1384
500000
329674
329674
329674
329674
329674
329674
329674
329674
329674
329674
329593
329593
329593
329593
329593
329593
329593
329593
329593
329593
329593
329593
329593
329593
329593
329593
327244
327244
327244
327244
327244
327244
327244
327244
327244
327244
327244
327244
326738
326738
326738
326738
326738
326738
326738
326738
326738
326738
326738
326738
326738
326738
326738
326738
326738
326738
326738
326066
326066
326066
326066
326066
326066
326066
326066
326066
326066
326066
322984
322984
322984
322984
322984
322984
322984
322984
322984
322984
322984
322984
322984
322984
322984
322125
322125
322125
322125
322125
322125
322125
322125
322125
322125
322125
322125
322125
322125
322125
322125
322125
322125
319348
319348
319348
319348
319348
319348
319348
319348
319348
319348
319348
319348
319348
316244
316244
316244
316244
314189
314189
314189
314189
314189
314189
314189
314189
313565
313565
313565
313565
313565
313565
313565
313565
313565
313565
313565
312402
312402
312402
312402
312402
312402
312402
312402
312402
312402
312402
312402
312402
309842
309842
309842
309842
309842
309842
309842
309842
309842
309842
309842
309842
309842
309842
309842
309842
309842
304018
304018
304018
304018
304018
304018
303619
303619
303619
303619
303619
303619
303619
303619
303619
303619
303619
303619
303619
303619
303619
303619
303619
303619
303619
303619
300802
300802
300802
300802
300802
300802
300802
300802
300802
300802
298831
298831
298831
298831
298831
298831
298831
298831
298831
298831
298831
298831
298831
298831
297432
297432
297432
297432
297432
297432
297432
297432
297432
297432
297432
297432
297432
297432
297432
297178
297178
297178
297178
297178
297178
297178
297178
297178
297178
297178
297178
296764
296764
296764
296764
296764
296764
296764
296764
291689
291689
291689
291689
291689
291689
291689
291689
291689
291689
291689
291689
291689
291689
291689
291689
291486
286211
286211
286211
286211
286211
286211
286211
286211
286211
286211
286211
285173
285173
285173
285173
285173
283181
283181
283181
283181
283181
283181
283181
283181
283181
283181
283181
280842
280842
280842
280842
280842
280842
280842
280842
280842
280842
280842
280842
280842
280842
280842
280842
280842
280842
268712
268712
268712
268712
268712
268712
268712
268712
268712
268712
268712
268712
268712
262418
262418
259751
259751
259751
259751
259751
257704
257704
257704
257704
257704
257704
257704
257704
257704
257704
257704
257704
257704
257704
257704
257704
257704
257704
257704
257704
257548
257548
257548
257548
257548
257548
257548
257548
257548
257548
257548
256212
256212
256212
256212
256212
256212
256212
256212
256212
255666
255666
255666
255666
255666
255666
255666
255666
255666
255666
255666
255666
255666
255666
255666
255666
255666
255666
253748
253748
251209
251209
251209
251209
251209
247712
247712
247712
247712
247712
247712
247712
247712
247712
247712
247712
247712
247712
246574
246574
246574
246574
246574
246574
246574
246574
246574
246574
246574
246574
246574
246574
246574
246574
246574
246574
246383
246383
246383
246383
246383
246383
246383
246383
245720
245720
245720
245720
245720
245720
245720
245720
245720
245720
244417
244417
244417
244417
244417
244417
244417
244417
244417
244417
244417
241334
241334
241334
241334
241334
241334
241334
241334
241334
241334
241334
241334
241334
241334
241334
238775
237313
237313
237313
237313
237313
237313
237313
237313
237313
237313
237313
237313
237313
237313
237313
237313
237313
237313
236249
236249
236249
236249
236249
236249
236249
236249
230837
230837
230837
230837
230837
230837
230837
230837
230837
230837
230774
230774
230774
230774
230774
230774
230774
230774
230774
230774
230774
230774
230774
230774
230774
230774
230774
230774
225024
225024
225024
225024
225024
225024
225024
225024
225024
225024
225024
225024
225024
225024
225024
225024
225024
225024
220257
220257
220257
220257
220257
220257
220257
220257
220257
220257
220257
218538
218538
218538
218538
218538
218538
218538
218538
218538
218538
218538
218538
217022
217022
217022
217022
217022
217022
217022
217022
216724
216724
216724
216724
216724
216724
216724
216724
216724
216724
216724
216724
216724
214989
214989
214989
214989
214989
214989
214989
214989
214989
214989
214989
214989
214989
214989
214989
214989
214989
214989
213714
213714
213714
213714
213714
213714
213714
213714
213714
210392
210392
210392
210392
210392
210392
210392
210392
210392
210392
209983
209983
209983
209983
209983
209983
209983
209983
209983
208079
208079
208079
208079
208079
208079
208079
208079
208079
208079
208079
208079
208079
208079
208079
207584
207584
207584
207584
207584
207584
207584
207584
207584
207584
207584
207584
206310
206310
206310
199792
199792
199792
199792
199792
199792
199792
199792
199792
199792
199792
199792
199792
199792
199792
199792
196909
196909
196909
196909
196909
196909
196909
196909
196909
196909
196909
196909
196909
196909
196909
196909
196909
180401
180401
180401
180401
180401
180401
180401
180401
180401
180401
179688
179688
179688
179688
179688
179688
179688
179688
179688
179688
179688
179688
179688
179688
179039
179039
179039
179039
179039
179039
179039
179039
172120
172120
172120
172120
172120
170990
170990
170990
170990
170990
170990
170990
170990
170990
170990
170990
170990
170909
170909
170909
170909
170909
170909
170908
170908
164624
164624
161868
161868
160935
160935
160935
160935
160629
160629
160629
158671
158671
158671
158671
158671
158671
158671
158671
158671
158671
149480
149480
149480
149480
149480
149480
149480
149480
149480
149480
149480
149480
147879
147879
147879
147879
147879
147879
147879
147879
147879
147879
147879
147879
147879
147879
147879
147879
147879
147879
147879
147879
147023
147023
147023
145294
145294
145294
145294
145294
145294
145294
145294
145294
145294
145294
145294
145294
145294
145294
145294
145294
144747
144747
144747
137514
137514
137514
137514
137514
137514
137514
137514
137514
137514
137514
137514
137514
137514
137301
137301
137301
137301
137301
137301
137301
137301
137301
128681
128681
125397
125397
125397
125397
125397
125397
125397
125397
125397
125397
125397
125397
125397
125397
125397
121978
121978
121978
121543
121543
121543
121543
121543
121543
121543
121543
121543
120160
120160
120160
120160
120160
120160
120160
120160
120160
120160
120160
120160
120160
120160
120160
120160
120160
120160
120160
118289
118289
118289
118289
118289
118289
118289
118289
118289
118289
118289
118289
118289
118027
118027
118027
118027
118027
118027
118027
118027
118027
118027
113772
113772
113772
113772
113772
113772
113772
113772
113772
113772
113772
113703
113703
113703
103569
103569
103569
103569
103569
103569
103569
103569
103569
103569
103569
102094
102094
102094
102094
102094
102094
102094
102094
102094
102094
92678
92678
92678
92678
92678
92678
86048
86048
86048
81937
81937
81937
81937
81937
81937
81937
81937
81937
81937
81937
81937
81937
81937
81937
81937
81937
81937
81937
81937
79138
79138
79138
79138
79138
79138
79138
79138
79138
79138
79138
79138
79138
79138
79138
79138
79138
79138
79138
79138
75568
75568
75568
75568
75568
75568
75568
75568
75568
75568
75568
75568
75568
75568
75568
75568
75568
75311
75311
75311
75311
75311
75311
75311
75311
75311
75311
75311
75311
75311
75311
75311
75311
75311
75311
75311
75311
71778
65021
65021
65021
64573
64573
64573
64573
64573
64573
64573
64573
64573
64573
64573
64573
64573
64573
64573
64573
61264
61264
61264
61264
61264
61264
61264
61264
61264
61264
61264
61264
60701
60701
60701
57007
57007
57007
57007
57007
57007
57007
57007
57007
57007
57007
57007
57007
57007
57007
57007
57007
57007
57007
57007
54294
54294
54294
54294
54294
54294
54294
51062
51062
51062
51062
51062
51062
51062
51062
51062
51062
51062
51062
51062
51062
51062
51062
51062
51062
51062
51062
48828
48828
48828
48828
48828
48828
48828
48828
48828
48828
48828
48828
48828
48828
48828
48828
48828
48828
48708
48708
48708
48708
48708
48708
48708
48708
48708
48708
48708
48708
48708
48708
48708
48708
48708
48708
48708
46004
46004
46004
46004
46004
46004
45590
45590
45590
45590
45590
45590
45590
45590
45590
44920
44920
44920
44920
44920
44920
44920
44920
44033
44033
44033
44033
44033
44033
44033
42759
42759
42759
42759
42759
42759
42759
42759
42759
42759
42759
42759
42759
42759
42759
42759
29019
29019
28555
28555
28555
28555
28555
28555
28555
28555
28555
28555
28555
28555
28555
26899
26899
26899
26899
26899
26899
26899
26899
26899
26899
26899
26899
26899
26899
26899
26899
25405
25405
25405
25405
25405
25405
25405
25405
25405
25405
25405
25405
25405
23752
23752
23752
23752
22661
22661
22661
22661
22661
22661
22661
22661
22661
22661
22661
22661
22661
22661
22661
22661
22661
22661
21986
21986
21986
21986
21986
21986
21986
21986
21986
21986
21986
16714
15434
15434
15434
15434
15434
15434
15434
15434
15434
15434
15434
15434
15434
15434
15434
8436
8436
8436
8436
8436
8436
8436
8436
8436
8436
8436
8436
8436
8436
8436
8436
8436
8436
7438
7438
7438
7438
7438
7438
7438
7438
7438
7438
7438
7438
7438
7438
7438
7438
7438
7438
7438
7438
6944
6944
6944
6944
6944
6944
6944
6944
6944
6944
6944
6944
6944
6944
6944
6944
6944
6944
6944
6944
6835
6835
6835
6835
6835
6835
6835
6835
6835
6835
6835
6835
6835
6835
6835
3962
3962
3962
3962
3962
